(set-logic HORN)
(declare-datatypes ((Bool_69 0)) (((false_69 ) (true_69 ))))
(declare-fun diseqBool_28 (Bool_69 Bool_69) Bool)
(declare-fun isfalse_28 (Bool_69) Bool)
(declare-fun istrue_28 (Bool_69) Bool)
(assert (isfalse_28 false_69))
(assert (istrue_28 true_69))
(assert (diseqBool_28 false_69 true_69))
(assert (diseqBool_28 true_69 false_69))
(declare-fun and_69 (Bool_69 Bool_69 Bool_69) Bool)
(declare-fun or_69 (Bool_69 Bool_69 Bool_69) Bool)
(declare-fun hence_69 (Bool_69 Bool_69 Bool_69) Bool)
(declare-fun not_69 (Bool_69 Bool_69) Bool)
(assert (and_69 false_69 false_69 false_69))
(assert (and_69 false_69 true_69 false_69))
(assert (and_69 false_69 false_69 true_69))
(assert (and_69 true_69 true_69 true_69))
(assert (or_69 false_69 false_69 false_69))
(assert (or_69 true_69 true_69 false_69))
(assert (or_69 true_69 false_69 true_69))
(assert (or_69 true_69 true_69 true_69))
(assert (hence_69 true_69 false_69 false_69))
(assert (hence_69 false_69 true_69 false_69))
(assert (hence_69 true_69 false_69 true_69))
(assert (hence_69 true_69 true_69 true_69))
(assert (not_69 true_69 false_69))
(assert (not_69 false_69 true_69))
(declare-datatypes ((Nat_133 0)) (((Z_376 ) (S_133 (projS_128 Nat_133)))))
(declare-fun diseqNat_133 (Nat_133 Nat_133) Bool)
(declare-fun projS_129 (Nat_133 Nat_133) Bool)
(declare-fun isZ_133 (Nat_133) Bool)
(declare-fun isS_133 (Nat_133) Bool)
(assert (forall ((x_3658 Nat_133))
	(projS_129 x_3658 (S_133 x_3658))))
(assert (isZ_133 Z_376))
(assert (forall ((x_3660 Nat_133))
	(isS_133 (S_133 x_3660))))
(assert (forall ((x_3661 Nat_133))
	(diseqNat_133 Z_376 (S_133 x_3661))))
(assert (forall ((x_3662 Nat_133))
	(diseqNat_133 (S_133 x_3662) Z_376)))
(assert (forall ((x_3663 Nat_133) (x_3664 Nat_133))
	(=> (diseqNat_133 x_3663 x_3664)
	    (diseqNat_133 (S_133 x_3663) (S_133 x_3664)))))
(declare-fun x_3640 (Bool_69 Nat_133 Nat_133) Bool)
(assert (forall ((x_3645 Bool_69) (x_3642 Nat_133) (z_377 Nat_133))
	(=> (x_3640 x_3645 z_377 x_3642)
	    (x_3640 x_3645 (S_133 z_377) (S_133 x_3642)))))
(assert (forall ((z_377 Nat_133))
	(x_3640 false_69 (S_133 z_377) Z_376)))
(assert (forall ((y_297 Nat_133))
	(x_3640 true_69 Z_376 y_297)))
(declare-fun x_3643 (Nat_133 Nat_133 Nat_133) Bool)
(assert (forall ((x_3650 Nat_133) (z_378 Nat_133) (y_298 Nat_133))
	(=> (x_3643 x_3650 z_378 y_298)
	    (x_3643 (S_133 x_3650) (S_133 z_378) y_298))))
(assert (forall ((x_3651 Nat_133))
	(x_3643 x_3651 Z_376 x_3651)))
(assert (forall ((x_3652 Nat_133) (n_27 Nat_133) (m_14 Nat_133))
	(=>	(and true
			(x_3643 x_3652 m_14 n_27)
			(x_3640 false_69 n_27 x_3652))
		false)))
(check-sat)
